size = 10;
tiles = 5;
expressions = [
    "( ([2 3 4 5 6]* 1{4} [2 3 4 5 6] [2 3 4 5 6]{6} 1{4}  [2 3 4 5 6]*) | ([2 3 4 5 6]* 1{2} [2 3 4 5 6] [2 3 4 5 6]{8} 1{2} [2 3 4 5 6] [2 3 4 5 6]{8} 1{2} [2 3 4 5 6] [2 3 4 5 6]{8} 1{2}  [2 3 4 5 6]*) | ([2 3 4 5 6]* 1{4} [2 3 4 5 6]{6} [2 3 4 5 6] 1{4}  [2 3 4 5 6]*) | ([2 3 4 5 6]* 1{2} [2 3 4 5 6]{8} [2 3 4 5 6] 1{2} [2 3 4 5 6]{8} [2 3 4 5 6] 1{2} [2 3 4 5 6]{8} [2 3 4 5 6] 1{2}  [2 3 4 5 6]*) | ([2 3 4 5 6]* 1{4} [2 3 4 5 6]{6} [2 3 4 5 6] 1{4}  [2 3 4 5 6]*) | ([2 3 4 5 6]* 1{2} [2 3 4 5 6]{8} [2 3 4 5 6] 1{2} [2 3 4 5 6]{8} [2 3 4 5 6] 1{2} [2 3 4 5 6]{8} [2 3 4 5 6] 1{2}  [2 3 4 5 6]*) | ([2 3 4 5 6]* 1{4} [2 3 4 5 6] [2 3 4 5 6]{6} 1{4}  [2 3 4 5 6]*) | ([2 3 4 5 6]* 1{2} [2 3 4 5 6] [2 3 4 5 6]{8} 1{2} [2 3 4 5 6] [2 3 4 5 6]{8} 1{2} [2 3 4 5 6] [2 3 4 5 6]{8} 1{2}  [2 3 4 5 6]*) )",
    "( ([1 3 4 5 6]* 2{2} [1 3 4 5 6] [1 3 4 5 6]{6} 2{4} [1 3 4 5 6] [1 3 4 5 6]{6} 2{4} [1 3 4 5 6] [1 3 4 5 6]{6} 2{4} [1 3 4 5 6] [1 3 4 5 6]{6} 2{4} [1 3 4 5 6] [1 3 4 5 6]{5} 2{5}  [1 3 4 5 6]*) | ([1 3 4 5 6]* 2{1} [1 3 4 5 6]{9} [1 3 4 5 6] 2{5} [1 3 4 5 6]{5} [1 3 4 5 6] 2{5} [1 3 4 5 6]{5} [1 3 4 5 6] 2{6} [1 3 4 5 6]{4} [1 3 4 5 6] 2{6}  [1 3 4 5 6]*) | ([1 3 4 5 6]* 2{5} [1 3 4 5 6]{5} [1 3 4 5 6] 2{4} [1 3 4 5 6]{6} [1 3 4 5 6] 2{4} [1 3 4 5 6]{6} [1 3 4 5 6] 2{4} [1 3 4 5 6]{6} [1 3 4 5 6] 2{4} [1 3 4 5 6]{6} [1 3 4 5 6] 2{2}  [1 3 4 5 6]*) | ([1 3 4 5 6]* 2{6} [1 3 4 5 6] [1 3 4 5 6]{4} 2{6} [1 3 4 5 6] [1 3 4 5 6]{5} 2{5} [1 3 4 5 6] [1 3 4 5 6]{5} 2{5} [1 3 4 5 6] [1 3 4 5 6]{9} 2{1}  [1 3 4 5 6]*) | ([1 3 4 5 6]* 2{2} [1 3 4 5 6]{8} [1 3 4 5 6] 2{4} [1 3 4 5 6]{6} [1 3 4 5 6] 2{4} [1 3 4 5 6]{6} [1 3 4 5 6] 2{4} [1 3 4 5 6]{6} [1 3 4 5 6] 2{4} [1 3 4 5 6]{6} [1 3 4 5 6] 2{5}  [1 3 4 5 6]*) | ([1 3 4 5 6]* 2{1} [1 3 4 5 6] [1 3 4 5 6]{5} 2{5} [1 3 4 5 6] [1 3 4 5 6]{5} 2{5} [1 3 4 5 6] [1 3 4 5 6]{4} 2{6} [1 3 4 5 6] [1 3 4 5 6]{4} 2{6}  [1 3 4 5 6]*) | ([1 3 4 5 6]* 2{5} [1 3 4 5 6] [1 3 4 5 6]{6} 2{4} [1 3 4 5 6] [1 3 4 5 6]{6} 2{4} [1 3 4 5 6] [1 3 4 5 6]{6} 2{4} [1 3 4 5 6] [1 3 4 5 6]{6} 2{4} [1 3 4 5 6] [1 3 4 5 6]{8} 2{2}  [1 3 4 5 6]*) | ([1 3 4 5 6]* 2{6} [1 3 4 5 6]{4} [1 3 4 5 6] 2{6} [1 3 4 5 6]{4} [1 3 4 5 6] 2{5} [1 3 4 5 6]{5} [1 3 4 5 6] 2{5} [1 3 4 5 6]{5} [1 3 4 5 6] 2{1}  [1 3 4 5 6]*) )",
    "( ([1 2 4 5 6]* 3{7} [1 2 4 5 6] [1 2 4 5 6]{4} 3{6} [1 2 4 5 6] [1 2 4 5 6]{4} 3{4} [1 2 4 5 6]{2} [1 2 4 5 6] [1 2 4 5 6]{5} 3{1} [1 2 4 5 6]{4} [1 2 4 5 6] [1 2 4 5 6]{5} 3{1} [1 2 4 5 6]{4} [1 2 4 5 6] [1 2 4 5 6]{5} 3{1} [1 2 4 5 6]{4} [1 2 4 5 6] [1 2 4 5 6]{4} 3{2}  [1 2 4 5 6]*) | ([1 2 4 5 6]* 3{1} [1 2 4 5 6]{2} [1 2 4 5 6] [1 2 4 5 6]{1} 3{1} [1 2 4 5 6]{3} 3{3} [1 2 4 5 6]{2} [1 2 4 5 6] [1 2 4 5 6]{1} 3{7} [1 2 4 5 6]{2} [1 2 4 5 6] [1 2 4 5 6]{5} 3{3} [1 2 4 5 6]{2} [1 2 4 5 6] [1 2 4 5 6]{5} 3{3} [1 2 4 5 6]{2} [1 2 4 5 6] [1 2 4 5 6]{6} 3{2} [1 2 4 5 6]{2} [1 2 4 5 6] [1 2 4 5 6]{6} 3{2}  [1 2 4 5 6]*) | ([1 2 4 5 6]* 3{2} [1 2 4 5 6]{4} [1 2 4 5 6] [1 2 4 5 6]{4} 3{1} [1 2 4 5 6]{5} [1 2 4 5 6] [1 2 4 5 6]{4} 3{1} [1 2 4 5 6]{5} [1 2 4 5 6] [1 2 4 5 6]{4} 3{1} [1 2 4 5 6]{5} [1 2 4 5 6] [1 2 4 5 6]{2} 3{4} [1 2 4 5 6]{4} [1 2 4 5 6] 3{6} [1 2 4 5 6]{4} [1 2 4 5 6] 3{7}  [1 2 4 5 6]*) | ([1 2 4 5 6]* 3{2} [1 2 4 5 6]{6} [1 2 4 5 6] [1 2 4 5 6]{2} 3{2} [1 2 4 5 6]{6} [1 2 4 5 6] [1 2 4 5 6]{2} 3{3} [1 2 4 5 6]{5} [1 2 4 5 6] [1 2 4 5 6]{2} 3{3} [1 2 4 5 6]{5} [1 2 4 5 6] [1 2 4 5 6]{2} 3{7} [1 2 4 5 6]{1} [1 2 4 5 6] [1 2 4 5 6]{2} 3{3} [1 2 4 5 6]{3} 3{1} [1 2 4 5 6]{1} [1 2 4 5 6] [1 2 4 5 6]{2} 3{1}  [1 2 4 5 6]*) | ([1 2 4 5 6]* 3{7} [1 2 4 5 6]{3} [1 2 4 5 6] 3{6} [1 2 4 5 6]{4} [1 2 4 5 6] [1 2 4 5 6]{2} 3{4} [1 2 4 5 6]{4} [1 2 4 5 6] [1 2 4 5 6]{4} 3{1} [1 2 4 5 6]{5} [1 2 4 5 6] [1 2 4 5 6]{4} 3{1} [1 2 4 5 6]{5} [1 2 4 5 6] [1 2 4 5 6]{4} 3{1} [1 2 4 5 6]{5} [1 2 4 5 6] [1 2 4 5 6]{4} 3{2}  [1 2 4 5 6]*) | ([1 2 4 5 6]* 3{1} [1 2 4 5 6]{7} [1 2 4 5 6] [1 2 4 5 6]{2} 3{3} [1 2 4 5 6]{3} 3{1} [1 2 4 5 6]{1} [1 2 4 5 6] [1 2 4 5 6]{2} 3{7} [1 2 4 5 6]{1} [1 2 4 5 6] [1 2 4 5 6]{2} 3{3} [1 2 4 5 6]{5} [1 2 4 5 6] [1 2 4 5 6]{2} 3{3} [1 2 4 5 6]{5} [1 2 4 5 6] [1 2 4 5 6]{2} 3{2} [1 2 4 5 6]{6} [1 2 4 5 6] [1 2 4 5 6]{2} 3{2}  [1 2 4 5 6]*) | ([1 2 4 5 6]* 3{2} [1 2 4 5 6]{4} [1 2 4 5 6] [1 2 4 5 6]{5} 3{1} [1 2 4 5 6]{4} [1 2 4 5 6] [1 2 4 5 6]{5} 3{1} [1 2 4 5 6]{4} [1 2 4 5 6] [1 2 4 5 6]{5} 3{1} [1 2 4 5 6]{4} [1 2 4 5 6] [1 2 4 5 6]{4} 3{4} [1 2 4 5 6]{2} [1 2 4 5 6] [1 2 4 5 6]{4} 3{6} [1 2 4 5 6] [1 2 4 5 6]{3} 3{7}  [1 2 4 5 6]*) | ([1 2 4 5 6]* 3{2} [1 2 4 5 6]{2} [1 2 4 5 6] [1 2 4 5 6]{6} 3{2} [1 2 4 5 6]{2} [1 2 4 5 6] [1 2 4 5 6]{5} 3{3} [1 2 4 5 6]{2} [1 2 4 5 6] [1 2 4 5 6]{5} 3{3} [1 2 4 5 6]{2} [1 2 4 5 6] [1 2 4 5 6]{1} 3{7} [1 2 4 5 6]{2} [1 2 4 5 6] [1 2 4 5 6]{1} 3{1} [1 2 4 5 6]{3} 3{3} [1 2 4 5 6]{2} [1 2 4 5 6] [1 2 4 5 6]{7} 3{1}  [1 2 4 5 6]*) )",
    "( ([1 2 3 5 6]* 4{6} [1 2 3 5 6]{4} [1 2 3 5 6] [1 2 3 5 6]{1} 4{5}  [1 2 3 5 6]*) | ([1 2 3 5 6]* 4{1} [1 2 3 5 6] [1 2 3 5 6]{8} 4{2} [1 2 3 5 6] [1 2 3 5 6]{8} 4{2} [1 2 3 5 6] [1 2 3 5 6]{8} 4{2} [1 2 3 5 6] [1 2 3 5 6]{8} 4{2} [1 2 3 5 6] [1 2 3 5 6]{8} 4{2}  [1 2 3 5 6]*) | ([1 2 3 5 6]* 4{5} [1 2 3 5 6]{1} [1 2 3 5 6] [1 2 3 5 6]{4} 4{6}  [1 2 3 5 6]*) | ([1 2 3 5 6]* 4{2} [1 2 3 5 6]{8} [1 2 3 5 6] 4{2} [1 2 3 5 6]{8} [1 2 3 5 6] 4{2} [1 2 3 5 6]{8} [1 2 3 5 6] 4{2} [1 2 3 5 6]{8} [1 2 3 5 6] 4{2} [1 2 3 5 6]{8} [1 2 3 5 6] 4{1}  [1 2 3 5 6]*) | ([1 2 3 5 6]* 4{6} [1 2 3 5 6] [1 2 3 5 6]{4} 4{5}  [1 2 3 5 6]*) | ([1 2 3 5 6]* 4{1} [1 2 3 5 6]{9} [1 2 3 5 6] 4{2} [1 2 3 5 6]{8} [1 2 3 5 6] 4{2} [1 2 3 5 6]{8} [1 2 3 5 6] 4{2} [1 2 3 5 6]{8} [1 2 3 5 6] 4{2} [1 2 3 5 6]{8} [1 2 3 5 6] 4{2}  [1 2 3 5 6]*) | ([1 2 3 5 6]* 4{5} [1 2 3 5 6]{4} [1 2 3 5 6] 4{6}  [1 2 3 5 6]*) | ([1 2 3 5 6]* 4{2} [1 2 3 5 6] [1 2 3 5 6]{8} 4{2} [1 2 3 5 6] [1 2 3 5 6]{8} 4{2} [1 2 3 5 6] [1 2 3 5 6]{8} 4{2} [1 2 3 5 6] [1 2 3 5 6]{8} 4{2} [1 2 3 5 6] [1 2 3 5 6]{9} 4{1}  [1 2 3 5 6]*) )",
    "( ([1 2 3 4 6]* 5{1} [1 2 3 4 6]{9} [1 2 3 4 6] 5{3} [1 2 3 4 6]{7} [1 2 3 4 6] 5{4} [1 2 3 4 6]{6} [1 2 3 4 6] 5{4} [1 2 3 4 6]{6} [1 2 3 4 6] 5{5} [1 2 3 4 6]{5} [1 2 3 4 6] 5{5} [1 2 3 4 6]{5} [1 2 3 4 6] 5{5} [1 2 3 4 6]{5} [1 2 3 4 6] 5{4} [1 2 3 4 6]{6} [1 2 3 4 6] 5{5}  [1 2 3 4 6]*) | ([1 2 3 4 6]* 5{9} [1 2 3 4 6]{1} [1 2 3 4 6] 5{8} [1 2 3 4 6]{2} [1 2 3 4 6] 5{8} [1 2 3 4 6]{2} [1 2 3 4 6] 5{7} [1 2 3 4 6]{3} [1 2 3 4 6] 5{1} [1 2 3 4 6]{1} 5{3}  [1 2 3 4 6]*) | ([1 2 3 4 6]* 5{5} [1 2 3 4 6] [1 2 3 4 6]{6} 5{4} [1 2 3 4 6] [1 2 3 4 6]{5} 5{5} [1 2 3 4 6] [1 2 3 4 6]{5} 5{5} [1 2 3 4 6] [1 2 3 4 6]{5} 5{5} [1 2 3 4 6] [1 2 3 4 6]{6} 5{4} [1 2 3 4 6] [1 2 3 4 6]{6} 5{4} [1 2 3 4 6] [1 2 3 4 6]{7} 5{3} [1 2 3 4 6] [1 2 3 4 6]{9} 5{1}  [1 2 3 4 6]*) | ([1 2 3 4 6]* 5{3} [1 2 3 4 6]{1} 5{1} [1 2 3 4 6] [1 2 3 4 6]{3} 5{7} [1 2 3 4 6] [1 2 3 4 6]{2} 5{8} [1 2 3 4 6] [1 2 3 4 6]{2} 5{8} [1 2 3 4 6] [1 2 3 4 6]{1} 5{9}  [1 2 3 4 6]*) | ([1 2 3 4 6]* 5{1} [1 2 3 4 6] [1 2 3 4 6]{7} 5{3} [1 2 3 4 6] [1 2 3 4 6]{6} 5{4} [1 2 3 4 6] [1 2 3 4 6]{6} 5{4} [1 2 3 4 6] [1 2 3 4 6]{5} 5{5} [1 2 3 4 6] [1 2 3 4 6]{5} 5{5} [1 2 3 4 6] [1 2 3 4 6]{5} 5{5} [1 2 3 4 6] [1 2 3 4 6]{6} 5{4} [1 2 3 4 6] [1 2 3 4 6]{5} 5{5}  [1 2 3 4 6]*) | ([1 2 3 4 6]* 5{9} [1 2 3 4 6] [1 2 3 4 6]{2} 5{8} [1 2 3 4 6] [1 2 3 4 6]{2} 5{8} [1 2 3 4 6] [1 2 3 4 6]{3} 5{7} [1 2 3 4 6] [1 2 3 4 6]{5} 5{3} [1 2 3 4 6]{1} 5{1}  [1 2 3 4 6]*) | ([1 2 3 4 6]* 5{5} [1 2 3 4 6]{5} [1 2 3 4 6] 5{4} [1 2 3 4 6]{6} [1 2 3 4 6] 5{5} [1 2 3 4 6]{5} [1 2 3 4 6] 5{5} [1 2 3 4 6]{5} [1 2 3 4 6] 5{5} [1 2 3 4 6]{5} [1 2 3 4 6] 5{4} [1 2 3 4 6]{6} [1 2 3 4 6] 5{4} [1 2 3 4 6]{6} [1 2 3 4 6] 5{3} [1 2 3 4 6]{7} [1 2 3 4 6] 5{1}  [1 2 3 4 6]*) | ([1 2 3 4 6]* 5{1} [1 2 3 4 6]{1} 5{3} [1 2 3 4 6]{5} [1 2 3 4 6] 5{7} [1 2 3 4 6]{3} [1 2 3 4 6] 5{8} [1 2 3 4 6]{2} [1 2 3 4 6] 5{8} [1 2 3 4 6]{2} [1 2 3 4 6] 5{9}  [1 2 3 4 6]*) )",
];
